Maximize
  0.00147960540883618 Z_281_1_0 + 6.1982425808497466e-04 Z_281_1_1
   + 0.7842058550512655 Z_281_1_2 + 0.00385487617749012 Z_281_1_3
   + 0.1098398391043232 Z_281_1_4 + 2.7052768616439994e-04 Z_132_0_0
   + 8.796232180367518e-04 Z_132_0_1 + 0.0667059496773373 Z_132_0_2
   + 0.8060764679471065 Z_132_0_3 + 0.026067431471355 Z_132_0_4
   + 0.00672352800282214 Z_236_0_0 + 0.5391484750574155 Z_236_0_1
   + 0.00364487915568526 Z_236_0_2 + 0.00441829864107836 Z_236_0_3
   + 0.3460648191429987 Z_236_0_4 + 6.4665445241885876e-04 Z_119_0_0
   + 0.00241065249876933 Z_119_0_1 + 0.0439444012091254 Z_119_0_2
   + 0.4149646161742798 Z_119_0_3 + 0.4380336756654067 Z_119_0_4
   + 0.0988646356771045 Z_166_2_0 + 0.085868341997329 Z_166_2_1
   + 0.0462459762823093 Z_166_2_2 + 0.1171964088218203 Z_166_2_3
   + 0.5518246372214369 Z_166_2_4 + 0.5268005354146932 Z_166_1_0
   + 0.0712202074223483 Z_166_1_1 + 0.00640721715098027 Z_166_1_2
   + 0.1173678358362475 Z_166_1_3 + 0.1782042041757308 Z_166_1_4
   + 0.00152511810482426 Z_166_0_0 + 6.3754279444674326e-04 Z_166_0_1
   + 0.8144397547914455 Z_166_0_2 + 0.00497810894493561 Z_166_0_3
   + 0.078419475364348 Z_166_0_4 + 9.60047e-05 Z_104_0_0
   + 0.0033930329038481 Z_104_0_1 + 0.1112052230797616 Z_104_0_2
   + 0.7656230452867816 Z_104_0_3 + 0.0196826940339339 Z_104_0_4
   + 4.2649928098049191e-04 Z_182_0_0 + 6.8047382329613755e-04 Z_182_0_1
   + 0.0770316659094464 Z_182_0_2 + 0.806367113678196 Z_182_0_3
   + 0.0154942473080809 Z_182_0_4 + 9.8134045458665351e-04 Z_261_0_0
   + 0.000854887 Z_261_0_1 + 0.0149777970778409 Z_261_0_2
   + 0.5363113316488132 Z_261_0_3 + 0.3468746438239843 Z_261_0_4
   + 0.00183815326894895 Z_5_1_0 + 0.035089198046637 Z_5_1_1
   + 0.0133754137834177 Z_5_1_2 + 0.00462495536049746 Z_5_1_3
   + 0.8450722795404989 Z_5_1_4 + 0.00201824914331645 Z_5_0_0
   + 0.00170330857806868 Z_5_0_1 + 0.3261690931339937 Z_5_0_2
   + 0.0021532870777206 Z_5_0_3 + 0.5679560620669005 Z_5_0_4
   + 0.0559722517696191 Z_5_2_0 + 0.0570599431494124 Z_5_2_1
   + 0.00868528574447133 Z_5_2_2 + 0.0323908565516212 Z_5_2_3
   + 0.7458916627848758 Z_5_2_4 + 0.0102956127603236 Z_183_0_0
   + 0.8245306773359365 Z_183_0_1 + 0.00872774326470093 Z_183_0_2
   + 0.0065885842547108 Z_183_0_3 + 0.0498573823843281 Z_183_0_4
   + 0.00142110102191182 Z_747_0_0 + 5.8720474465200631e-04 Z_747_0_1
   + 0.7619705456135739 Z_747_0_2 + 0.00303778420422212 Z_747_0_3
   + 0.1329833644156401 Z_747_0_4 + 0.00142110102191182 Z_747_1_0
   + 5.8720474465200631e-04 Z_747_1_1 + 0.7619705456135739 Z_747_1_2
   + 0.00303778420422212 Z_747_1_3 + 0.1329833644156401 Z_747_1_4
   + 0.1774781825835663 Z_747_2_0 + 0.00462930253685065 Z_747_2_1
   + 0.00887202546855123 Z_747_2_2 + 0.3538641361467188 Z_747_2_3
   + 0.355156353264313 Z_747_2_4 + 0.0835939925426283 Z_578_1_0
   + 0.0308196088724339 Z_578_1_1 + 0.0932483736494283 Z_578_1_2
   + 0.1669882431367319 Z_578_1_3 + 0.5253497817987778 Z_578_1_4
   + 0.00310903717440717 Z_578_0_0 + 0.00118525380575416 Z_578_0_1
   + 0.6892960439814519 Z_578_0_2 + 0.0103557302546741 Z_578_0_3
   + 0.1960539347837127 Z_578_0_4 + 0.0835939925426283 Z_578_2_0
   + 0.0308196088724339 Z_578_2_1 + 0.0932483736494283 Z_578_2_2
   + 0.1669882431367319 Z_578_2_3 + 0.5253497817987778 Z_578_2_4
   + 0.248173486271279 Z_527_0_0 + 0.0662438869337853 Z_527_0_1
   + 0.0826209728327608 Z_527_0_2 + 0.0301469406038873 Z_527_0_3
   + 0.4728147133582875 Z_527_0_4 + 0.00174001537046257 Z_527_1_0
   + 9.2162827457412339e-04 Z_527_1_1 + 0.6437412226313399 Z_527_1_2
   + 0.00767025507029274 Z_527_1_3 + 0.2459268786533308 Z_527_1_4
   + 0.6410501913103642 Z_285_1_0 + 0.0510294002395847 Z_285_1_1
   + 0.0036946188693432 Z_285_1_2 + 0.0555851206526365 Z_285_1_3
   + 0.1486406689280714 Z_285_1_4 + 0.00152511810482426 Z_285_0_0
   + 6.3754279444674326e-04 Z_285_0_1 + 0.8144397547914455 Z_285_0_2
   + 0.00497810894493561 Z_285_0_3 + 0.078419475364348 Z_285_0_4
   + 0.00159551239039114 Z_381_0_0 + 0.00107843332117647 Z_381_0_1
   + 0.024439753877167 Z_381_0_2 + 0.687169149204221 Z_381_0_3
   + 0.1857171512070444 Z_381_0_4 + 2.0318452413428624e-04 Z_610_0_0
   + 0.00134964525865774 Z_610_0_1 + 0.1274182021435254 Z_610_0_2
   + 0.7546850368294094 Z_610_0_3 + 0.0163439312442732 Z_610_0_4
   + 0.00177147276962298 Z_531_0_0 + 0.017078774736521 Z_531_0_1
   + 0.010051474922511 Z_531_0_2 + 0.0511646244114134 Z_531_0_3
   + 0.8199336531599318 Z_531_0_4 + 0.0124542985050405 Z_531_1_0
   + 0.0351081580960137 Z_531_1_1 + 0.0241024014238269 Z_531_1_2
   + 0.0806918449514086 Z_531_1_3 + 0.7476432970237104 Z_531_1_4
   + 0.023049587604919 Z_531_3_0 + 0.0106600950329428 Z_531_3_1
   + 0.00386969907252112 Z_531_3_2 + 0.1172303013809379 Z_531_3_3
   + 0.7451903169086792 Z_531_3_4 + 0.0532277781784274 Z_531_2_0
   + 0.0495880451885427 Z_531_2_1 + 0.00826661134556559 Z_531_2_2
   + 0.1598320989937207 Z_531_2_3 + 0.6290854662937437 Z_531_2_4
   + 0.0189118772848262 Z_531_4_0 + 0.1292727716040183 Z_531_4_1
   + 0.00750443364001319 Z_531_4_2 + 0.1096204776511066 Z_531_4_3
   + 0.6346904398200356 Z_531_4_4
Subject To
 constraint1_2811: Z_281_1_0 + Z_281_1_1 + Z_281_1_2 + Z_281_1_3
   + Z_281_1_4 <= 1
 constraint1_1320: Z_132_0_0 + Z_132_0_1 + Z_132_0_2 + Z_132_0_3
   + Z_132_0_4 <= 1
 constraint1_2360: Z_236_0_0 + Z_236_0_1 + Z_236_0_2 + Z_236_0_3
   + Z_236_0_4 <= 1
 constraint1_1190: Z_119_0_0 + Z_119_0_1 + Z_119_0_2 + Z_119_0_3
   + Z_119_0_4 <= 1
 constraint1_1662: Z_166_2_0 + Z_166_2_1 + Z_166_2_2 + Z_166_2_3
   + Z_166_2_4 <= 1
 constraint1_1661: Z_166_1_0 + Z_166_1_1 + Z_166_1_2 + Z_166_1_3
   + Z_166_1_4 <= 1
 constraint1_1660: Z_166_0_0 + Z_166_0_1 + Z_166_0_2 + Z_166_0_3
   + Z_166_0_4 <= 1
 constraint1_1040: Z_104_0_0 + Z_104_0_1 + Z_104_0_2 + Z_104_0_3
   + Z_104_0_4 <= 1
 constraint1_1820: Z_182_0_0 + Z_182_0_1 + Z_182_0_2 + Z_182_0_3
   + Z_182_0_4 <= 1
 constraint1_2610: Z_261_0_0 + Z_261_0_1 + Z_261_0_2 + Z_261_0_3
   + Z_261_0_4 <= 1
 constraint1_51: Z_5_1_0 + Z_5_1_1 + Z_5_1_2 + Z_5_1_3 + Z_5_1_4 <= 1
 constraint1_50: Z_5_0_0 + Z_5_0_1 + Z_5_0_2 + Z_5_0_3 + Z_5_0_4 <= 1
 constraint1_52: Z_5_2_0 + Z_5_2_1 + Z_5_2_2 + Z_5_2_3 + Z_5_2_4 <= 1
 constraint1_1830: Z_183_0_0 + Z_183_0_1 + Z_183_0_2 + Z_183_0_3
   + Z_183_0_4 <= 1
 constraint1_7470: Z_747_0_0 + Z_747_0_1 + Z_747_0_2 + Z_747_0_3
   + Z_747_0_4 <= 1
 constraint1_7471: Z_747_1_0 + Z_747_1_1 + Z_747_1_2 + Z_747_1_3
   + Z_747_1_4 <= 1
 constraint1_7472: Z_747_2_0 + Z_747_2_1 + Z_747_2_2 + Z_747_2_3
   + Z_747_2_4 <= 1
 constraint1_5781: Z_578_1_0 + Z_578_1_1 + Z_578_1_2 + Z_578_1_3
   + Z_578_1_4 <= 1
 constraint1_5780: Z_578_0_0 + Z_578_0_1 + Z_578_0_2 + Z_578_0_3
   + Z_578_0_4 <= 1
 constraint1_5782: Z_578_2_0 + Z_578_2_1 + Z_578_2_2 + Z_578_2_3
   + Z_578_2_4 <= 1
 constraint1_5270: Z_527_0_0 + Z_527_0_1 + Z_527_0_2 + Z_527_0_3
   + Z_527_0_4 <= 1
 constraint1_5271: Z_527_1_0 + Z_527_1_1 + Z_527_1_2 + Z_527_1_3
   + Z_527_1_4 <= 1
 constraint1_2851: Z_285_1_0 + Z_285_1_1 + Z_285_1_2 + Z_285_1_3
   + Z_285_1_4 <= 1
 constraint1_2850: Z_285_0_0 + Z_285_0_1 + Z_285_0_2 + Z_285_0_3
   + Z_285_0_4 <= 1
 constraint1_3810: Z_381_0_0 + Z_381_0_1 + Z_381_0_2 + Z_381_0_3
   + Z_381_0_4 <= 1
 constraint1_6100: Z_610_0_0 + Z_610_0_1 + Z_610_0_2 + Z_610_0_3
   + Z_610_0_4 <= 1
 constraint1_5310: Z_531_0_0 + Z_531_0_1 + Z_531_0_2 + Z_531_0_3
   + Z_531_0_4 <= 1
 constraint1_5311: Z_531_1_0 + Z_531_1_1 + Z_531_1_2 + Z_531_1_3
   + Z_531_1_4 <= 1
 constraint1_5313: Z_531_3_0 + Z_531_3_1 + Z_531_3_2 + Z_531_3_3
   + Z_531_3_4 <= 1
 constraint1_5312: Z_531_2_0 + Z_531_2_1 + Z_531_2_2 + Z_531_2_3
   + Z_531_2_4 <= 1
 constraint1_5314: Z_531_4_0 + Z_531_4_1 + Z_531_4_2 + Z_531_4_3
   + Z_531_4_4 <= 1
 constraint2_2810: Z_281_1_0 <= 1
 constraint2_2811: Z_281_1_1 <= 1
 constraint2_2812: Z_281_1_2 <= 1
 constraint2_2813: Z_281_1_3 <= 1
 constraint2_1320: Z_132_0_0 <= 1
 constraint2_1321: Z_132_0_1 <= 1
 constraint2_1322: Z_132_0_2 <= 1
 constraint2_1323: Z_132_0_3 <= 1
 constraint2_2360: Z_236_0_0 <= 1
 constraint2_2361: Z_236_0_1 <= 1
 constraint2_2362: Z_236_0_2 <= 1
 constraint2_2363: Z_236_0_3 <= 1
 constraint2_1190: Z_119_0_0 <= 1
 constraint2_1191: Z_119_0_1 <= 1
 constraint2_1192: Z_119_0_2 <= 1
 constraint2_1193: Z_119_0_3 <= 1
 constraint2_1660: Z_166_2_0 + Z_166_1_0 + Z_166_0_0 <= 1
 constraint2_1661: Z_166_2_1 + Z_166_1_1 + Z_166_0_1 <= 1
 constraint2_1662: Z_166_2_2 + Z_166_1_2 + Z_166_0_2 <= 1
 constraint2_1663: Z_166_2_3 + Z_166_1_3 + Z_166_0_3 <= 1
 constraint2_4710: <= 1
 constraint2_4711: <= 1
 constraint2_4712: <= 1
 constraint2_4713: <= 1
 constraint2_1040: Z_104_0_0 <= 1
 constraint2_1041: Z_104_0_1 <= 1
 constraint2_1042: Z_104_0_2 <= 1
 constraint2_1043: Z_104_0_3 <= 1
 constraint2_1820: Z_182_0_0 <= 1
 constraint2_1821: Z_182_0_1 <= 1
 constraint2_1822: Z_182_0_2 <= 1
 constraint2_1823: Z_182_0_3 <= 1
 constraint2_2610: Z_261_0_0 <= 1
 constraint2_2611: Z_261_0_1 <= 1
 constraint2_2612: Z_261_0_2 <= 1
 constraint2_2613: Z_261_0_3 <= 1
 constraint2_50: Z_5_1_0 + Z_5_0_0 + Z_5_2_0 <= 1
 constraint2_51: Z_5_1_1 + Z_5_0_1 + Z_5_2_1 <= 1
 constraint2_52: Z_5_1_2 + Z_5_0_2 + Z_5_2_2 <= 1
 constraint2_53: Z_5_1_3 + Z_5_0_3 + Z_5_2_3 <= 1
 constraint2_1830: Z_183_0_0 <= 1
 constraint2_1831: Z_183_0_1 <= 1
 constraint2_1832: Z_183_0_2 <= 1
 constraint2_1833: Z_183_0_3 <= 1
 constraint2_7470: Z_747_0_0 + Z_747_1_0 + Z_747_2_0 <= 1
 constraint2_7471: Z_747_0_1 + Z_747_1_1 + Z_747_2_1 <= 1
 constraint2_7472: Z_747_0_2 + Z_747_1_2 + Z_747_2_2 <= 1
 constraint2_7473: Z_747_0_3 + Z_747_1_3 + Z_747_2_3 <= 1
 constraint2_7200: <= 1
 constraint2_7201: <= 1
 constraint2_7202: <= 1
 constraint2_7203: <= 1
 constraint2_7400: <= 1
 constraint2_7401: <= 1
 constraint2_7402: <= 1
 constraint2_7403: <= 1
 constraint2_5780: Z_578_1_0 + Z_578_0_0 + Z_578_2_0 <= 1
 constraint2_5781: Z_578_1_1 + Z_578_0_1 + Z_578_2_1 <= 1
 constraint2_5782: Z_578_1_2 + Z_578_0_2 + Z_578_2_2 <= 1
 constraint2_5783: Z_578_1_3 + Z_578_0_3 + Z_578_2_3 <= 1
 constraint2_5440: <= 1
 constraint2_5441: <= 1
 constraint2_5442: <= 1
 constraint2_5443: <= 1
 constraint2_3490: <= 1
 constraint2_3491: <= 1
 constraint2_3492: <= 1
 constraint2_3493: <= 1
 constraint2_5270: Z_527_0_0 + Z_527_1_0 <= 1
 constraint2_5271: Z_527_0_1 + Z_527_1_1 <= 1
 constraint2_5272: Z_527_0_2 + Z_527_1_2 <= 1
 constraint2_5273: Z_527_0_3 + Z_527_1_3 <= 1
 constraint2_2850: Z_285_1_0 + Z_285_0_0 <= 1
 constraint2_2851: Z_285_1_1 + Z_285_0_1 <= 1
 constraint2_2852: Z_285_1_2 + Z_285_0_2 <= 1
 constraint2_2853: Z_285_1_3 + Z_285_0_3 <= 1
 constraint2_2540: <= 1
 constraint2_2541: <= 1
 constraint2_2542: <= 1
 constraint2_2543: <= 1
 constraint2_3810: Z_381_0_0 <= 1
 constraint2_3811: Z_381_0_1 <= 1
 constraint2_3812: Z_381_0_2 <= 1
 constraint2_3813: Z_381_0_3 <= 1
 constraint2_6100: Z_610_0_0 <= 1
 constraint2_6101: Z_610_0_1 <= 1
 constraint2_6102: Z_610_0_2 <= 1
 constraint2_6103: Z_610_0_3 <= 1
 constraint2_5310: Z_531_0_0 + Z_531_1_0 + Z_531_3_0 + Z_531_2_0
   + Z_531_4_0 <= 1
 constraint2_5311: Z_531_0_1 + Z_531_1_1 + Z_531_3_1 + Z_531_2_1
   + Z_531_4_1 <= 1
 constraint2_5312: Z_531_0_2 + Z_531_1_2 + Z_531_3_2 + Z_531_2_2
   + Z_531_4_2 <= 1
 constraint2_5313: Z_531_0_3 + Z_531_1_3 + Z_531_3_3 + Z_531_2_3
   + Z_531_4_3 <= 1
Bounds
Binaries
 Z_281_1_0 Z_281_1_1 Z_281_1_2 Z_281_1_3 Z_281_1_4 Z_132_0_0 Z_132_0_1
 Z_132_0_2 Z_132_0_3 Z_132_0_4 Z_236_0_0 Z_236_0_1 Z_236_0_2 Z_236_0_3
 Z_236_0_4 Z_119_0_0 Z_119_0_1 Z_119_0_2 Z_119_0_3 Z_119_0_4 Z_166_2_0
 Z_166_2_1 Z_166_2_2 Z_166_2_3 Z_166_2_4 Z_166_1_0 Z_166_1_1 Z_166_1_2
 Z_166_1_3 Z_166_1_4 Z_166_0_0 Z_166_0_1 Z_166_0_2 Z_166_0_3 Z_166_0_4
 Z_104_0_0 Z_104_0_1 Z_104_0_2 Z_104_0_3 Z_104_0_4 Z_182_0_0 Z_182_0_1
 Z_182_0_2 Z_182_0_3 Z_182_0_4 Z_261_0_0 Z_261_0_1 Z_261_0_2 Z_261_0_3
 Z_261_0_4 Z_5_1_0 Z_5_1_1 Z_5_1_2 Z_5_1_3 Z_5_1_4 Z_5_0_0 Z_5_0_1 Z_5_0_2
 Z_5_0_3 Z_5_0_4 Z_5_2_0 Z_5_2_1 Z_5_2_2 Z_5_2_3 Z_5_2_4 Z_183_0_0
 Z_183_0_1 Z_183_0_2 Z_183_0_3 Z_183_0_4 Z_747_0_0 Z_747_0_1 Z_747_0_2
 Z_747_0_3 Z_747_0_4 Z_747_1_0 Z_747_1_1 Z_747_1_2 Z_747_1_3 Z_747_1_4
 Z_747_2_0 Z_747_2_1 Z_747_2_2 Z_747_2_3 Z_747_2_4 Z_578_1_0 Z_578_1_1
 Z_578_1_2 Z_578_1_3 Z_578_1_4 Z_578_0_0 Z_578_0_1 Z_578_0_2 Z_578_0_3
 Z_578_0_4 Z_578_2_0 Z_578_2_1 Z_578_2_2 Z_578_2_3 Z_578_2_4 Z_527_0_0
 Z_527_0_1 Z_527_0_2 Z_527_0_3 Z_527_0_4 Z_527_1_0 Z_527_1_1 Z_527_1_2
 Z_527_1_3 Z_527_1_4 Z_285_1_0 Z_285_1_1 Z_285_1_2 Z_285_1_3 Z_285_1_4
 Z_285_0_0 Z_285_0_1 Z_285_0_2 Z_285_0_3 Z_285_0_4 Z_381_0_0 Z_381_0_1
 Z_381_0_2 Z_381_0_3 Z_381_0_4 Z_610_0_0 Z_610_0_1 Z_610_0_2 Z_610_0_3
 Z_610_0_4 Z_531_0_0 Z_531_0_1 Z_531_0_2 Z_531_0_3 Z_531_0_4 Z_531_1_0
 Z_531_1_1 Z_531_1_2 Z_531_1_3 Z_531_1_4 Z_531_3_0 Z_531_3_1 Z_531_3_2
 Z_531_3_3 Z_531_3_4 Z_531_2_0 Z_531_2_1 Z_531_2_2 Z_531_2_3 Z_531_2_4
 Z_531_4_0 Z_531_4_1 Z_531_4_2 Z_531_4_3 Z_531_4_4
End
